c This is QMaxSAT 2017 based on 14.07
c This is Glucose 3.0
c This is MiniSat 2.2.0
c WARNING: for repeatability, setting FPU to use double precision
c card = mrwto, comp = 0, pmodel = 0, narr = 5, mct = 24, verb = 0
cr firstCPXsol 0 0 0
c top = 81479
c |  Number of variables:    14518                                            |
c |  Number of clauses:      3131092                                          |
c |  Weight of hard clauses: 81479                                            |
c |  Number of soft clauses: 2760                                             |
c |  Number of unit soft clauses: 2760                                        |
c |  Maximum Cardinality (by unit): 407390       (407390      )               |
c last restart ## conflicts  :  65 4783 
o 1451 | cpuTime 0.278763 s
c Sum of weights = 81478
c A number of soft clauses remained = 552
c MRWTO encoding for Pseudo-Boolean Constraints
c sizeMax=1451
c No.0 Divisor=12	generated by pow1
c No.1 Divisor=12	generated by pow1
c No.2 Divisor=12	generated by pow1
c p0= 12	p1= 12	p2= 12	
c number of digits = 4
c linkingVar[0].size = 12, linkingVar[1].size = 12, linkingVar[2].size = 11, linkingVar[3].size = 1, 
c Pseudo-Boolean Constraints: 12172 variables and 117969 clauses
c Sum of weights = 81478
c A number of soft clauses remained = 552
c MRWTO encoding for Pseudo-Boolean Constraints
c sizeMax=1451
c No.0 Divisor=12	generated by pow1
c No.1 Divisor=12	generated by pow1
c No.2 Divisor=12	generated by pow1
c p0= 12	p1= 12	p2= 12	
c number of digits = 4
c linkingVar[0].size = 12, linkingVar[1].size = 12, linkingVar[2].size = 11, linkingVar[3].size = 1, 
c Pseudo-Boolean Constraints: 12172 variables and 117969 clauses
c Sum of weights = 81478
c A number of soft clauses remained = 552
c MRWTO encoding for Pseudo-Boolean Constraints
c sizeMax=1451
c No.0 Divisor=12	generated by pow1
c No.1 Divisor=12	generated by pow1
c No.2 Divisor=12	generated by pow1
c p0= 12	p1= 12	p2= 12	
c number of digits = 4
c linkingVar[0].size = 12, linkingVar[1].size = 12, linkingVar[2].size = 11, linkingVar[3].size = 1, 
c Pseudo-Boolean Constraints: 12172 variables and 117969 clauses
c Sum of weights = 81478
c A number of soft clauses remained = 552
c MRWTO encoding for Pseudo-Boolean Constraints
c sizeMax=1451
c No.0 Divisor=12	generated by pow1
c No.1 Divisor=12	generated by pow1
c No.2 Divisor=12	generated by pow1
c p0= 12	p1= 12	p2= 12	
c number of digits = 4
c linkingVar[0].size = 12, linkingVar[1].size = 12, linkingVar[2].size = 11, linkingVar[3].size = 1, 
c Pseudo-Boolean Constraints: 12172 variables and 117969 clauses
c Sum of weights = 81478
c A number of soft clauses remained = 552
c MRWTO encoding for Pseudo-Boolean Constraints
c sizeMax=1451
c No.0 Divisor=12	generated by pow1
c No.1 Divisor=12	generated by pow1
c No.2 Divisor=12	generated by pow1
c p0= 12	p1= 12	p2= 12	
c number of digits = 4
c linkingVar[0].size = 12, linkingVar[1].size = 12, linkingVar[2].size = 11, linkingVar[3].size = 1, 
c Pseudo-Boolean Constraints: 12172 variables and 117969 clauses
c last restart ## conflicts  :  131 10751 
o 1195 | cpuTime 0.401033 s
c last restart ## conflicts  :  204 16531 
o 1155 | cpuTime 0.466958 s
c last restart ## conflicts  :  175 6579 
o 1040 | cpuTime 1.81392 s
c last restart ## conflicts  :  473 5851 
o 977 | cpuTime 2.22615 s
c last restart ## conflicts  :  189 6290 
o 856 | cpuTime 2.67316 s
c last restart ## conflicts  :  645 5867 
o 814 | cpuTime 5.71742 s
c last restart ## conflicts  :  391 6191 
o 799 | cpuTime 7.9713 s
c last restart ## conflicts  :  640 7202 
o 788 | cpuTime 8.1609 s
c last restart ## conflicts  :  419 6422 
o 765 | cpuTime 16.5373 s
c last restart ## conflicts  :  366 6304 
o 745 | cpuTime 22.1671 s
c last restart ## conflicts  :  469 5305 
o 744 | cpuTime 26.287 s
c last restart ## conflicts  :  87 5555 
o 739 | cpuTime 39.1805 s
c last restart ## conflicts  :  881 6791 
o 734 | cpuTime 62.6532 s
c last restart ## conflicts  :  128 7683 
o 723 | cpuTime 68.3067 s
c last restart ## conflicts  :  378 6645 
o 717 | cpuTime 83.3431 s
c last restart ## conflicts  :  196 5831 
o 711 | cpuTime 134.925 s
c last restart ## conflicts  :  736 6398 
o 705 | cpuTime 142.22 s
c last restart ## conflicts  :  1674 4874 
o 704 | cpuTime 153.164 s
c last restart ## conflicts  :  142 7782 
o 697 | cpuTime 185.8 s
c last restart ## conflicts  :  30 17331 
o 681 | cpuTime 185.822 s
c last restart ## conflicts  :  411 6854 
o 670 | cpuTime 268.053 s
c last restart ## conflicts  :  29 16027 
o 655 | cpuTime 268.072 s
c last restart ## conflicts  :  810 6198 
o 653 | cpuTime 396.392 s
c last restart ## conflicts  :  14 7686 
o 651 | cpuTime 442.24 s
c last restart ## conflicts  :  213 6687 
o 650 | cpuTime 777.491 s
c last restart ## conflicts  :  257 6399 
o 636 | cpuTime 872.498 s
c last restart ## conflicts  :  3878 7105 
o 632 | cpuTime 1647.4 s
s UNKNOWN
c Search is stopped by a limit (maybe time-limit)
cr positiVarArr: [ | 6@1(1->6) | 110@1(5->14) | 144@1(6->24) | 205@1(9->13) | 265@1(12->1) | 311@1(13->23) | 321@1(14->9) | 540@1(23->12) | 557@1(24->5) | 591@2(1->15) | 793@2(10->1) | 931@2(15->19) | 1018@2(19->10) | 1172@3(1->20) | 1183@3(2->7) | 1297@3(7->1) | 1610@3(20->2) | 1732@4(1->4) | 1801@4(4->1) | 2312@5(1->8) | 2363@5(3->11) | 2493@5(8->21) | 2560@5(11->16) | 2665@5(16->1) | 2710@5(17->22) | 2715@5(18->3) | 2801@5(21->17) | 2826@5(22->18) | ]
cr the 1-th chain: [ 1->6->24->5->14->9->13->23->12->1 ] (#non-depot=8) {#cumul.=9}
cr the 2-th chain: [ 1->15->19->10->1 ] (#non-depot=3) {#cumul.=12}
cr the 3-th chain: [ 1->20->2->7->1 ] (#non-depot=3) {#cumul.=15}
cr the 4-th chain: [ 1->4->1 ] (#non-depot=1) {#cumul.=16}
cr the 5-th chain: [ 1->8->21->17->22->18->3->11->16->1 ] (#non-depot=8) {#cumul.=24}
c Latest Answer = 0 by 28 loops
c restarts              : 109851
c conflicts             : 15214364       (4236 /sec)
c decisions             : 118156244      (0.00 % random) (32898 /sec)
c propagations          : 14518570534    (4042436 /sec)
c conflict literals     : 3430161667     (23.08 % deleted)
c Memory used           : 876.00 MB
c CPU time              : 3591.54 s
